c A SAT instance generated from a 3-CNF formula that had 24 clauses and 12 variables
p cnf 12 24
-7 6 -10 0
4 12 -1 0
-2 -7 12 0
-1 6 5 0
-8 -2 -3 0
1 -11 -7 0
-11 6 -12 0
10 6 -4 0
-2 -5 8 0
8 6 -7 0
3 5 10 0
-3 -8 -7 0
12 -8 2 0
1 8 5 0
-4 -11 5 0
9 -7 -1 0
-2 12 3 0
-11 8 6 0
3 10 -5 0
9 10 -12 0
-4 -9 10 0
-10 6 -1 0
5 -1 -12 0
8 12 -7 0
